62      4       
18      21      15      31      
0       0       0       0       0       3       2       3       4       
7       0       7       0       0       3       6       7       22      
9       10      0       0       0       3       9       20      27      
1       7       0       0       0       3       5       12      18      
6       7       0       0       0       3       9       23      30      
4       0       0       0       9       2       8       9       
6       0       0       0       1       3       13      14      17      
7       3       0       0       0       3       10      11      44      
10      0       0       0       4       2       15      26      
5       5       0       0       0       2       32      34      
3       0       0       0       7       2       29      53      
4       0       0       9       0       2       16      33      
4       0       0       0       9       3       19      33      55      
4       3       0       0       0       1       51      
3       0       0       7       0       2       35      50      
10      0       0       2       0       3       24      28      31      
6       0       0       4       0       2       40      45      
8       0       8       0       0       1       37      
8       0       0       0       2       1       20      
8       8       0       0       0       2       21      36      
5       0       0       0       1       3       35      43      52      
9       5       0       0       0       3       32      33      45      
9       2       0       0       0       1       25      
7       0       0       5       0       3       29      42      46      
10      0       0       0       10      2       46      49      
2       0       6       0       0       2       42      44      
10      0       6       0       0       2       34      43      
2       0       7       0       0       1       29      
1       0       8       0       0       1       48      
10      0       2       0       0       2       32      57      
2       0       0       3       0       2       39      42      
3       0       0       5       0       1       58      
5       0       6       0       0       3       34      35      40      
8       0       5       0       0       1       41      
9       0       0       0       4       3       41      58      60      
9       0       0       0       2       2       49      57      
3       0       6       0       0       1       38      
8       5       0       0       0       2       48      49      
6       0       0       0       4       2       43      47      
1       0       7       0       0       2       41      52      
3       0       0       7       0       1       56      
3       0       0       0       9       1       45      
2       0       8       0       0       1       46      
1       0       3       0       0       3       47      56      58      
7       3       0       0       0       1       50      
3       0       0       0       2       3       48      51      59      
4       5       0       0       0       1       61      
8       0       0       0       3       2       54      61      
6       0       1       0       0       2       52      60      
9       0       6       0       0       1       51      
6       0       8       0       0       1       53      
7       1       0       0       0       1       56      
1       0       0       3       0       1       54      
2       0       0       0       8       1       57      
6       0       0       0       4       1       59      
5       0       0       5       0       1       61      
1       0       0       0       4       1       60      
2       4       0       0       0       1       59      
3       0       0       5       0       1       62      
5       0       6       0       0       1       62      
10      0       9       0       0       1       62      
0       0       0       0       0       0       